(set-info :smt-lib-version 2.6)
(set-logic UFNIA)
(set-info :source |
Generated by: Geoff Sutcliffe
Generated on: 2026-03-11
Generator: TPTPWorld
Application: Benchmarking automated theorem provers
Time limit: 120.0

These benchmarks are translations from the TPTP Library (Thousands of
Problems for Theorem Provers), see http://www.cs.miami.edu/~tptp/

The TPTP is maintained by Geoff Sutcliffe, and he contributed this
selection of benchmarks to SMT-LIB.  They were exported from the
v9.2.1 realease of TPTP.
|)
(set-info :category "industrial")
(set-info :status "unknown")
; SZS status Success
(declare-sort $$unsorted 0)
(declare-sort tptp.uni 0)
(declare-sort tptp.ty 0)
(declare-fun tptp.sort1 (tptp.ty tptp.uni) Bool)
(declare-fun tptp.witness1 (tptp.ty) tptp.uni)
(assert (forall ((A tptp.ty)) (tptp.sort1 A (tptp.witness1 A))))
(declare-fun tptp.int () tptp.ty)
(declare-fun tptp.real () tptp.ty)
(declare-sort tptp.bool1 0)
(declare-fun tptp.bool () tptp.ty)
(declare-fun tptp.true1 () tptp.bool1)
(declare-fun tptp.false1 () tptp.bool1)
(declare-fun tptp.match_bool1 (tptp.ty tptp.bool1 tptp.uni tptp.uni) tptp.uni)
(assert (forall ((A tptp.ty) (X tptp.bool1) (X1 tptp.uni) (X2 tptp.uni)) (tptp.sort1 A (tptp.match_bool1 A X X1 X2))))
(assert (forall ((A tptp.ty) (Z tptp.uni) (Z1 tptp.uni)) (=> (tptp.sort1 A Z) (= (tptp.match_bool1 A tptp.true1 Z Z1) Z))))
(assert (forall ((A tptp.ty) (Z tptp.uni) (Z1 tptp.uni)) (=> (tptp.sort1 A Z1) (= (tptp.match_bool1 A tptp.false1 Z Z1) Z1))))
(assert (not (= tptp.true1 tptp.false1)))
(assert (forall ((U tptp.bool1)) (or (= U tptp.true1) (= U tptp.false1))))
(declare-sort tptp.tuple02 0)
(declare-fun tptp.tuple0 () tptp.ty)
(declare-fun tptp.tuple03 () tptp.tuple02)
(assert (forall ((U tptp.tuple02)) (= U tptp.tuple03)))
(declare-fun tptp.qtmark () tptp.ty)
(assert (forall ((X Int) (Y Int) (Z Int)) (=> (<= X Y) (=> (<= 0 Z) (<= (* X Z) (* Y Z))))))
(declare-fun tptp.ref (tptp.ty) tptp.ty)
(declare-fun tptp.mk_ref (tptp.ty tptp.uni) tptp.uni)
(assert (forall ((A tptp.ty) (X tptp.uni)) (tptp.sort1 (tptp.ref A) (tptp.mk_ref A X))))
(declare-fun tptp.contents (tptp.ty tptp.uni) tptp.uni)
(assert (forall ((A tptp.ty) (X tptp.uni)) (tptp.sort1 A (tptp.contents A X))))
(assert (forall ((A tptp.ty) (U tptp.uni)) (=> (tptp.sort1 A U) (= (tptp.contents A (tptp.mk_ref A U)) U))))
(assert (forall ((A tptp.ty) (U tptp.uni)) (=> (tptp.sort1 (tptp.ref A) U) (= U (tptp.mk_ref A (tptp.contents A U))))))
(declare-fun tptp.set (tptp.ty) tptp.ty)
(declare-fun tptp.mem (tptp.ty tptp.uni tptp.uni) Bool)
(declare-fun tptp.infix_eqeq (tptp.ty tptp.uni tptp.uni) Bool)
(assert (forall ((A tptp.ty) (S1 tptp.uni) (S2 tptp.uni)) (let ((_let_1 (tptp.infix_eqeq A S1 S2))) (and (=> _let_1 (forall ((X tptp.uni)) (= (tptp.mem A X S1) (tptp.mem A X S2)))) (=> (forall ((X tptp.uni)) (=> (tptp.sort1 A X) (= (tptp.mem A X S1) (tptp.mem A X S2)))) _let_1)))))
(assert (forall ((A tptp.ty) (S1 tptp.uni) (S2 tptp.uni)) (let ((_let_1 (tptp.set A))) (=> (tptp.sort1 _let_1 S1) (=> (tptp.sort1 _let_1 S2) (=> (tptp.infix_eqeq A S1 S2) (= S1 S2)))))))
(declare-fun tptp.subset (tptp.ty tptp.uni tptp.uni) Bool)
(assert (forall ((A tptp.ty) (S1 tptp.uni) (S2 tptp.uni)) (let ((_let_1 (tptp.subset A S1 S2))) (and (=> _let_1 (forall ((X tptp.uni)) (=> (tptp.mem A X S1) (tptp.mem A X S2)))) (=> (forall ((X tptp.uni)) (=> (tptp.sort1 A X) (=> (tptp.mem A X S1) (tptp.mem A X S2)))) _let_1)))))
(assert (forall ((A tptp.ty) (S tptp.uni)) (tptp.subset A S S)))
(assert (forall ((A tptp.ty) (S1 tptp.uni) (S2 tptp.uni) (S3 tptp.uni)) (=> (tptp.subset A S1 S2) (=> (tptp.subset A S2 S3) (tptp.subset A S1 S3)))))
(declare-fun tptp.empty (tptp.ty) tptp.uni)
(assert (forall ((A tptp.ty)) (tptp.sort1 (tptp.set A) (tptp.empty A))))
(declare-fun tptp.is_empty (tptp.ty tptp.uni) Bool)
(assert (forall ((A tptp.ty) (S tptp.uni)) (let ((_let_1 (tptp.is_empty A S))) (and (=> _let_1 (forall ((X tptp.uni)) (not (tptp.mem A X S)))) (=> (forall ((X tptp.uni)) (=> (tptp.sort1 A X) (not (tptp.mem A X S)))) _let_1)))))
(assert (forall ((A tptp.ty)) (tptp.is_empty A (tptp.empty A))))
(assert (forall ((A tptp.ty) (X tptp.uni)) (= (tptp.mem A X (tptp.empty A)) false)))
(declare-fun tptp.add (tptp.ty tptp.uni tptp.uni) tptp.uni)
(assert (forall ((A tptp.ty) (X tptp.uni) (X1 tptp.uni)) (tptp.sort1 (tptp.set A) (tptp.add A X X1))))
(assert (forall ((A tptp.ty) (X tptp.uni) (Y tptp.uni)) (=> (tptp.sort1 A X) (=> (tptp.sort1 A Y) (forall ((S tptp.uni)) (= (tptp.mem A X (tptp.add A Y S)) (or (= X Y) (tptp.mem A X S))))))))
(declare-fun tptp.remove (tptp.ty tptp.uni tptp.uni) tptp.uni)
(assert (forall ((A tptp.ty) (X tptp.uni) (X1 tptp.uni)) (tptp.sort1 (tptp.set A) (tptp.remove A X X1))))
(assert (forall ((A tptp.ty) (X tptp.uni) (Y tptp.uni) (S tptp.uni)) (=> (tptp.sort1 A X) (=> (tptp.sort1 A Y) (= (tptp.mem A X (tptp.remove A Y S)) (and (not (= X Y)) (tptp.mem A X S)))))))
(assert (forall ((A tptp.ty) (X tptp.uni) (S tptp.uni)) (=> (tptp.sort1 (tptp.set A) S) (=> (tptp.mem A X S) (= (tptp.add A X (tptp.remove A X S)) S)))))
(assert (forall ((A tptp.ty) (X tptp.uni) (S tptp.uni)) (= (tptp.remove A X (tptp.add A X S)) (tptp.remove A X S))))
(assert (forall ((A tptp.ty) (X tptp.uni) (S tptp.uni)) (tptp.subset A (tptp.remove A X S) S)))
(declare-fun tptp.union (tptp.ty tptp.uni tptp.uni) tptp.uni)
(assert (forall ((A tptp.ty) (X tptp.uni) (X1 tptp.uni)) (tptp.sort1 (tptp.set A) (tptp.union A X X1))))
(assert (forall ((A tptp.ty) (S1 tptp.uni) (S2 tptp.uni) (X tptp.uni)) (= (tptp.mem A X (tptp.union A S1 S2)) (or (tptp.mem A X S1) (tptp.mem A X S2)))))
(declare-fun tptp.inter (tptp.ty tptp.uni tptp.uni) tptp.uni)
(assert (forall ((A tptp.ty) (X tptp.uni) (X1 tptp.uni)) (tptp.sort1 (tptp.set A) (tptp.inter A X X1))))
(assert (forall ((A tptp.ty) (S1 tptp.uni) (S2 tptp.uni) (X tptp.uni)) (= (tptp.mem A X (tptp.inter A S1 S2)) (and (tptp.mem A X S1) (tptp.mem A X S2)))))
(declare-fun tptp.diff (tptp.ty tptp.uni tptp.uni) tptp.uni)
(assert (forall ((A tptp.ty) (X tptp.uni) (X1 tptp.uni)) (tptp.sort1 (tptp.set A) (tptp.diff A X X1))))
(assert (forall ((A tptp.ty) (S1 tptp.uni) (S2 tptp.uni) (X tptp.uni)) (= (tptp.mem A X (tptp.diff A S1 S2)) (and (tptp.mem A X S1) (not (tptp.mem A X S2))))))
(assert (forall ((A tptp.ty) (S1 tptp.uni) (S2 tptp.uni)) (tptp.subset A (tptp.diff A S1 S2) S1)))
(declare-fun tptp.choose (tptp.ty tptp.uni) tptp.uni)
(assert (forall ((A tptp.ty) (X tptp.uni)) (tptp.sort1 A (tptp.choose A X))))
(assert (forall ((A tptp.ty) (S tptp.uni)) (=> (not (tptp.is_empty A S)) (tptp.mem A (tptp.choose A S) S))))
(declare-fun tptp.cardinal1 (tptp.ty tptp.uni) Int)
(assert (forall ((A tptp.ty) (S tptp.uni)) (<= 0 (tptp.cardinal1 A S))))
(assert (forall ((A tptp.ty) (S tptp.uni)) (= (= (tptp.cardinal1 A S) 0) (tptp.is_empty A S))))
(assert (forall ((A tptp.ty) (X tptp.uni) (S tptp.uni)) (=> (not (tptp.mem A X S)) (= (tptp.cardinal1 A (tptp.add A X S)) (+ 1 (tptp.cardinal1 A S))))))
(assert (forall ((A tptp.ty) (X tptp.uni) (S tptp.uni)) (=> (tptp.mem A X S) (= (tptp.cardinal1 A S) (+ 1 (tptp.cardinal1 A (tptp.remove A X S)))))))
(assert (forall ((A tptp.ty) (S1 tptp.uni) (S2 tptp.uni)) (=> (tptp.subset A S1 S2) (<= (tptp.cardinal1 A S1) (tptp.cardinal1 A S2)))))
(assert (forall ((A tptp.ty) (S tptp.uni)) (=> (= (tptp.cardinal1 A S) 1) (forall ((X tptp.uni)) (=> (tptp.sort1 A X) (=> (tptp.mem A X S) (= X (tptp.choose A S))))))))
(declare-fun tptp.map (tptp.ty tptp.ty) tptp.ty)
(declare-fun tptp.get (tptp.ty tptp.ty tptp.uni tptp.uni) tptp.uni)
(assert (forall ((A tptp.ty) (B tptp.ty) (X tptp.uni) (X1 tptp.uni)) (tptp.sort1 B (tptp.get B A X X1))))
(declare-fun tptp.set1 (tptp.ty tptp.ty tptp.uni tptp.uni tptp.uni) tptp.uni)
(assert (forall ((A tptp.ty) (B tptp.ty) (X tptp.uni) (X1 tptp.uni) (X2 tptp.uni)) (tptp.sort1 (tptp.map A B) (tptp.set1 B A X X1 X2))))
(assert (forall ((A tptp.ty) (B tptp.ty) (M tptp.uni) (A1 tptp.uni) (A2 tptp.uni) (B1 tptp.uni)) (=> (tptp.sort1 B B1) (=> (= A1 A2) (= (tptp.get B A (tptp.set1 B A M A1 B1) A2) B1)))))
(assert (forall ((A tptp.ty) (B tptp.ty) (M tptp.uni) (A1 tptp.uni) (A2 tptp.uni)) (=> (tptp.sort1 A A1) (=> (tptp.sort1 A A2) (forall ((B1 tptp.uni)) (=> (not (= A1 A2)) (= (tptp.get B A (tptp.set1 B A M A1 B1) A2) (tptp.get B A M A2))))))))
(declare-fun tptp.const (tptp.ty tptp.ty tptp.uni) tptp.uni)
(assert (forall ((A tptp.ty) (B tptp.ty) (X tptp.uni)) (tptp.sort1 (tptp.map A B) (tptp.const B A X))))
(assert (forall ((A tptp.ty) (B tptp.ty) (B1 tptp.uni) (A1 tptp.uni)) (=> (tptp.sort1 B B1) (= (tptp.get B A (tptp.const B A B1) A1) B1))))
(declare-sort tptp.vertex1 0)
(declare-fun tptp.vertex () tptp.ty)
(declare-sort tptp.set_vertex 0)
(declare-fun tptp.v1 () tptp.set_vertex)
(declare-fun tptp.g_succ1 (tptp.vertex1) tptp.set_vertex)
(declare-fun tptp.t2tb (tptp.set_vertex) tptp.uni)
(assert (forall ((X tptp.set_vertex)) (tptp.sort1 (tptp.set tptp.vertex) (tptp.t2tb X))))
(declare-fun tptp.tb2t (tptp.uni) tptp.set_vertex)
(assert (forall ((I tptp.set_vertex)) (= (tptp.tb2t (tptp.t2tb I)) I)))
(assert (forall ((J tptp.uni)) (=> (tptp.sort1 (tptp.set tptp.vertex) J) (= (tptp.t2tb (tptp.tb2t J)) J))))
(assert (forall ((X tptp.vertex1)) (tptp.subset tptp.vertex (tptp.t2tb (tptp.g_succ1 X)) (tptp.t2tb tptp.v1))))
(declare-fun tptp.weight1 (tptp.vertex1 tptp.vertex1) Int)
(assert (forall ((X tptp.vertex1) (Y tptp.vertex1)) (<= 0 (tptp.weight1 X Y))))
(declare-sort tptp.map_vertex_int 0)
(declare-fun tptp.min1 (tptp.vertex1 tptp.set_vertex tptp.map_vertex_int) Bool)
(declare-fun tptp.t2tb1 (tptp.map_vertex_int) tptp.uni)
(assert (forall ((X tptp.map_vertex_int)) (tptp.sort1 (tptp.map tptp.vertex tptp.int) (tptp.t2tb1 X))))
(declare-fun tptp.tb2t1 (tptp.uni) tptp.map_vertex_int)
(assert (forall ((I tptp.map_vertex_int)) (= (tptp.tb2t1 (tptp.t2tb1 I)) I)))
(assert (forall ((J tptp.uni)) (= (tptp.t2tb1 (tptp.tb2t1 J)) J)))
(declare-fun tptp.t2tb2 (tptp.vertex1) tptp.uni)
(assert (forall ((X tptp.vertex1)) (tptp.sort1 tptp.vertex (tptp.t2tb2 X))))
(declare-fun tptp.tb2t2 (tptp.uni) tptp.vertex1)
(assert (forall ((I tptp.vertex1)) (= (tptp.tb2t2 (tptp.t2tb2 I)) I)))
(assert (forall ((J tptp.uni)) (=> (tptp.sort1 tptp.vertex J) (= (tptp.t2tb2 (tptp.tb2t2 J)) J))))
(declare-fun tptp.t2tb3 (Int) tptp.uni)
(assert (forall ((X Int)) (tptp.sort1 tptp.int (tptp.t2tb3 X))))
(declare-fun tptp.tb2t3 (tptp.uni) Int)
(assert (forall ((I Int)) (= (tptp.tb2t3 (tptp.t2tb3 I)) I)))
(assert (forall ((J tptp.uni)) (= (tptp.t2tb3 (tptp.tb2t3 J)) J)))
(assert (forall ((M tptp.vertex1) (Q tptp.set_vertex) (D tptp.map_vertex_int)) (= (tptp.min1 M Q D) (and (tptp.mem tptp.vertex (tptp.t2tb2 M) (tptp.t2tb Q)) (forall ((X tptp.vertex1)) (let ((_let_1 (tptp.t2tb2 X))) (let ((_let_2 (tptp.t2tb1 D))) (=> (tptp.mem tptp.vertex _let_1 (tptp.t2tb Q)) (<= (tptp.tb2t3 (tptp.get tptp.int tptp.vertex _let_2 (tptp.t2tb2 M))) (tptp.tb2t3 (tptp.get tptp.int tptp.vertex _let_2 _let_1)))))))))))
(declare-fun tptp.path1 (tptp.vertex1 tptp.vertex1 Int) Bool)
(assert (forall ((X tptp.vertex1)) (tptp.path1 X X 0)))
(assert (forall ((X tptp.vertex1) (Y tptp.vertex1) (Z tptp.vertex1) (D Int)) (=> (tptp.path1 X Y D) (=> (tptp.mem tptp.vertex (tptp.t2tb2 Z) (tptp.t2tb (tptp.g_succ1 Y))) (tptp.path1 X Z (+ D (tptp.weight1 Y Z)))))))
(assert (forall ((Z tptp.vertex1) (Z1 tptp.vertex1) (Z2 Int)) (=> (tptp.path1 Z Z1 Z2) (or (exists ((X tptp.vertex1)) (and (= Z X) (= Z1 X) (= Z2 0))) (exists ((X tptp.vertex1) (Y tptp.vertex1) (Z3 tptp.vertex1) (D Int)) (and (tptp.path1 X Y D) (tptp.mem tptp.vertex (tptp.t2tb2 Z3) (tptp.t2tb (tptp.g_succ1 Y))) (= Z X) (= Z1 Z3) (= Z2 (+ D (tptp.weight1 Y Z3)))))))))
(assert (forall ((X tptp.vertex1) (Y tptp.vertex1) (D Int)) (=> (tptp.path1 X Y D) (<= 0 D))))
(declare-fun tptp.shortest_path1 (tptp.vertex1 tptp.vertex1 Int) Bool)
(assert (forall ((X tptp.vertex1) (Y tptp.vertex1) (D Int)) (= (tptp.shortest_path1 X Y D) (and (tptp.path1 X Y D) (forall ((Dqt Int)) (=> (tptp.path1 X Y Dqt) (<= D Dqt)))))))
(assert (forall ((Src tptp.vertex1) (V tptp.vertex1) (D Int)) (=> (tptp.path1 Src V D) (or (and (= V Src) (= D 0)) (exists ((Vqt tptp.vertex1)) (and (tptp.path1 Src Vqt (- D (tptp.weight1 Vqt V))) (tptp.mem tptp.vertex (tptp.t2tb2 V) (tptp.t2tb (tptp.g_succ1 Vqt)))))))))
(assert (forall ((Src tptp.vertex1) (V tptp.vertex1) (D Int)) (=> (tptp.path1 Src V D) (exists ((Dqt Int)) (and (tptp.shortest_path1 Src V Dqt) (<= Dqt D))))))
(assert (forall ((Src tptp.vertex1) (V tptp.vertex1) (D Int)) (=> (tptp.path1 Src V D) (=> (not (tptp.shortest_path1 Src V D)) (or (and (= V Src) (< 0 D)) (exists ((Vqt tptp.vertex1) (Dqt Int)) (and (tptp.shortest_path1 Src Vqt Dqt) (tptp.mem tptp.vertex (tptp.t2tb2 V) (tptp.t2tb (tptp.g_succ1 Vqt))) (< (+ Dqt (tptp.weight1 Vqt V)) D))))))))
(assert (forall ((S tptp.set_vertex)) (=> (forall ((V tptp.vertex1)) (=> (tptp.mem tptp.vertex (tptp.t2tb2 V) (tptp.t2tb S)) (forall ((W tptp.vertex1)) (let ((_let_1 (tptp.t2tb2 W))) (=> (tptp.mem tptp.vertex _let_1 (tptp.t2tb (tptp.g_succ1 V))) (tptp.mem tptp.vertex _let_1 (tptp.t2tb S))))))) (forall ((Src tptp.vertex1)) (=> (tptp.mem tptp.vertex (tptp.t2tb2 Src) (tptp.t2tb S)) (forall ((Dst tptp.vertex1) (D Int)) (=> (tptp.path1 Src Dst D) (tptp.mem tptp.vertex (tptp.t2tb2 Dst) (tptp.t2tb S)))))))))
(declare-fun tptp.inv_src1 (tptp.vertex1 tptp.set_vertex tptp.set_vertex) Bool)
(assert (forall ((Src tptp.vertex1) (S tptp.set_vertex) (Q tptp.set_vertex)) (let ((_let_1 (tptp.t2tb2 Src))) (= (tptp.inv_src1 Src S Q) (or (tptp.mem tptp.vertex _let_1 (tptp.t2tb S)) (tptp.mem tptp.vertex _let_1 (tptp.t2tb Q)))))))
(declare-fun tptp.inv1 (tptp.vertex1 tptp.set_vertex tptp.set_vertex tptp.map_vertex_int) Bool)
(assert (forall ((Src tptp.vertex1) (S tptp.set_vertex) (Q tptp.set_vertex) (D tptp.map_vertex_int)) (let ((_let_1 (tptp.t2tb tptp.v1))) (= (tptp.inv1 Src S Q D) (and (tptp.inv_src1 Src S Q) (= (tptp.tb2t3 (tptp.get tptp.int tptp.vertex (tptp.t2tb1 D) (tptp.t2tb2 Src))) 0) (tptp.subset tptp.vertex (tptp.t2tb S) _let_1) (tptp.subset tptp.vertex (tptp.t2tb Q) _let_1) (forall ((V tptp.vertex1)) (let ((_let_1 (tptp.t2tb2 V))) (=> (tptp.mem tptp.vertex _let_1 (tptp.t2tb Q)) (=> (tptp.mem tptp.vertex _let_1 (tptp.t2tb S)) false)))) (forall ((V tptp.vertex1)) (let ((_let_1 (tptp.t2tb2 V))) (=> (tptp.mem tptp.vertex _let_1 (tptp.t2tb S)) (tptp.shortest_path1 Src V (tptp.tb2t3 (tptp.get tptp.int tptp.vertex (tptp.t2tb1 D) _let_1)))))) (forall ((V tptp.vertex1)) (let ((_let_1 (tptp.t2tb2 V))) (=> (tptp.mem tptp.vertex _let_1 (tptp.t2tb Q)) (tptp.path1 Src V (tptp.tb2t3 (tptp.get tptp.int tptp.vertex (tptp.t2tb1 D) _let_1)))))))))))
(declare-fun tptp.inv_succ1 (tptp.vertex1 tptp.set_vertex tptp.set_vertex tptp.map_vertex_int) Bool)
(assert (forall ((Src tptp.vertex1) (S tptp.set_vertex) (Q tptp.set_vertex) (D tptp.map_vertex_int)) (= (tptp.inv_succ1 Src S Q D) (forall ((X tptp.vertex1)) (=> (tptp.mem tptp.vertex (tptp.t2tb2 X) (tptp.t2tb S)) (forall ((Y tptp.vertex1)) (let ((_let_1 (tptp.t2tb1 D))) (let ((_let_2 (tptp.t2tb2 Y))) (=> (tptp.mem tptp.vertex _let_2 (tptp.t2tb (tptp.g_succ1 X))) (and (or (tptp.mem tptp.vertex _let_2 (tptp.t2tb S)) (tptp.mem tptp.vertex _let_2 (tptp.t2tb Q))) (<= (tptp.tb2t3 (tptp.get tptp.int tptp.vertex _let_1 _let_2)) (+ (tptp.tb2t3 (tptp.get tptp.int tptp.vertex _let_1 (tptp.t2tb2 X))) (tptp.weight1 X Y)))))))))))))
(declare-fun tptp.inv_succ21 (tptp.vertex1 tptp.set_vertex tptp.set_vertex tptp.map_vertex_int tptp.vertex1 tptp.set_vertex) Bool)
(assert (forall ((Src tptp.vertex1) (S tptp.set_vertex) (Q tptp.set_vertex) (D tptp.map_vertex_int) (U tptp.vertex1) (Su tptp.set_vertex)) (= (tptp.inv_succ21 Src S Q D U Su) (forall ((X tptp.vertex1)) (=> (tptp.mem tptp.vertex (tptp.t2tb2 X) (tptp.t2tb S)) (forall ((Y tptp.vertex1)) (let ((_let_1 (tptp.t2tb1 D))) (let ((_let_2 (tptp.t2tb2 Y))) (let ((_let_3 (= X U))) (=> (tptp.mem tptp.vertex _let_2 (tptp.t2tb (tptp.g_succ1 X))) (=> (or (not _let_3) (and _let_3 (not (tptp.mem tptp.vertex _let_2 (tptp.t2tb Su))))) (and (or (tptp.mem tptp.vertex _let_2 (tptp.t2tb S)) (tptp.mem tptp.vertex _let_2 (tptp.t2tb Q))) (<= (tptp.tb2t3 (tptp.get tptp.int tptp.vertex _let_1 _let_2)) (+ (tptp.tb2t3 (tptp.get tptp.int tptp.vertex _let_1 (tptp.t2tb2 X))) (tptp.weight1 X Y)))))))))))))))
(assert (not (forall ((Src tptp.vertex1) (Dst tptp.vertex1) (D tptp.map_vertex_int)) (let ((_let_1 (tptp.t2tb tptp.v1))) (=> (and (tptp.mem tptp.vertex (tptp.t2tb2 Src) _let_1) (tptp.mem tptp.vertex (tptp.t2tb2 Dst) _let_1)) (forall ((Q tptp.set_vertex) (D1 tptp.map_vertex_int) (Visited tptp.set_vertex)) (let ((_let_1 (tptp.t2tb2 Src))) (=> (and (forall ((X tptp.vertex1)) (not (tptp.mem tptp.vertex (tptp.t2tb2 X) (tptp.t2tb Visited)))) (= Q (tptp.tb2t (tptp.add tptp.vertex _let_1 (tptp.empty tptp.vertex)))) (= D1 (tptp.tb2t1 (tptp.set1 tptp.int tptp.vertex (tptp.t2tb1 D) _let_1 (tptp.t2tb3 0))))) (forall ((Q1 tptp.set_vertex) (D2 tptp.map_vertex_int) (Visited1 tptp.set_vertex)) (let ((_let_1 (tptp.t2tb tptp.v1))) (=> (and (tptp.inv_src1 Src Visited1 Q1) (= (tptp.tb2t3 (tptp.get tptp.int tptp.vertex (tptp.t2tb1 D2) (tptp.t2tb2 Src))) 0) (tptp.subset tptp.vertex (tptp.t2tb Visited1) _let_1) (tptp.subset tptp.vertex (tptp.t2tb Q1) _let_1) (forall ((V tptp.vertex1)) (let ((_let_1 (tptp.t2tb2 V))) (=> (tptp.mem tptp.vertex _let_1 (tptp.t2tb Q1)) (=> (tptp.mem tptp.vertex _let_1 (tptp.t2tb Visited1)) false)))) (forall ((V tptp.vertex1)) (let ((_let_1 (tptp.t2tb2 V))) (=> (tptp.mem tptp.vertex _let_1 (tptp.t2tb Visited1)) (tptp.shortest_path1 Src V (tptp.tb2t3 (tptp.get tptp.int tptp.vertex (tptp.t2tb1 D2) _let_1)))))) (forall ((V tptp.vertex1)) (let ((_let_1 (tptp.t2tb2 V))) (=> (tptp.mem tptp.vertex _let_1 (tptp.t2tb Q1)) (tptp.path1 Src V (tptp.tb2t3 (tptp.get tptp.int tptp.vertex (tptp.t2tb1 D2) _let_1)))))) (forall ((X tptp.vertex1)) (=> (tptp.mem tptp.vertex (tptp.t2tb2 X) (tptp.t2tb Visited1)) (forall ((Y tptp.vertex1)) (let ((_let_1 (tptp.t2tb1 D2))) (let ((_let_2 (tptp.t2tb2 Y))) (=> (tptp.mem tptp.vertex _let_2 (tptp.t2tb (tptp.g_succ1 X))) (and (or (tptp.mem tptp.vertex _let_2 (tptp.t2tb Visited1)) (tptp.mem tptp.vertex _let_2 (tptp.t2tb Q1))) (<= (tptp.tb2t3 (tptp.get tptp.int tptp.vertex _let_1 _let_2)) (+ (tptp.tb2t3 (tptp.get tptp.int tptp.vertex _let_1 (tptp.t2tb2 X))) (tptp.weight1 X Y)))))))))) (forall ((M tptp.vertex1)) (=> (and (tptp.mem tptp.vertex (tptp.t2tb2 M) (tptp.t2tb Q1)) (forall ((X tptp.vertex1)) (let ((_let_1 (tptp.t2tb2 X))) (let ((_let_2 (tptp.t2tb1 D2))) (=> (tptp.mem tptp.vertex _let_1 (tptp.t2tb Q1)) (<= (tptp.tb2t3 (tptp.get tptp.int tptp.vertex _let_2 (tptp.t2tb2 M))) (tptp.tb2t3 (tptp.get tptp.int tptp.vertex _let_2 _let_1)))))))) (forall ((X tptp.vertex1) (Dx Int)) (=> (tptp.path1 Src X Dx) (=> (< Dx (tptp.tb2t3 (tptp.get tptp.int tptp.vertex (tptp.t2tb1 D2) (tptp.t2tb2 M)))) (tptp.mem tptp.vertex (tptp.t2tb2 X) (tptp.t2tb Visited1)))))))) (forall ((O tptp.bool1)) (let ((_let_1 (= O tptp.true1))) (=> (= _let_1 (forall ((X tptp.vertex1)) (not (tptp.mem tptp.vertex (tptp.t2tb2 X) (tptp.t2tb Q1))))) (=> (not _let_1) (=> (not (forall ((X tptp.vertex1)) (not (tptp.mem tptp.vertex (tptp.t2tb2 X) (tptp.t2tb Q1))))) (forall ((Q2 tptp.set_vertex) (U tptp.vertex1)) (let ((_let_1 (tptp.t2tb2 U))) (let ((_let_2 (tptp.t2tb Q1))) (=> (and (tptp.mem tptp.vertex _let_1 _let_2) (forall ((X tptp.vertex1)) (let ((_let_1 (tptp.t2tb2 X))) (let ((_let_2 (tptp.t2tb1 D2))) (=> (tptp.mem tptp.vertex _let_1 (tptp.t2tb Q1)) (<= (tptp.tb2t3 (tptp.get tptp.int tptp.vertex _let_2 (tptp.t2tb2 U))) (tptp.tb2t3 (tptp.get tptp.int tptp.vertex _let_2 _let_1))))))) (= Q2 (tptp.tb2t (tptp.remove tptp.vertex _let_1 _let_2)))) (=> (and (tptp.path1 Src U (tptp.tb2t3 (tptp.get tptp.int tptp.vertex (tptp.t2tb1 D2) _let_1))) (forall ((Dqt Int)) (=> (tptp.path1 Src U Dqt) (<= (tptp.tb2t3 (tptp.get tptp.int tptp.vertex (tptp.t2tb1 D2) (tptp.t2tb2 U))) Dqt)))) (forall ((Visited2 tptp.set_vertex)) (=> (= Visited2 (tptp.tb2t (tptp.add tptp.vertex (tptp.t2tb2 U) (tptp.t2tb Visited1)))) (forall ((Su tptp.set_vertex) (Q3 tptp.set_vertex) (D3 tptp.map_vertex_int)) (let ((_let_1 (tptp.t2tb tptp.v1))) (=> (and (forall ((X tptp.vertex1)) (let ((_let_1 (tptp.t2tb2 X))) (=> (tptp.mem tptp.vertex _let_1 (tptp.t2tb Su)) (tptp.mem tptp.vertex _let_1 (tptp.t2tb (tptp.g_succ1 U)))))) (tptp.inv_src1 Src Visited2 Q3) (= (tptp.tb2t3 (tptp.get tptp.int tptp.vertex (tptp.t2tb1 D3) (tptp.t2tb2 Src))) 0) (tptp.subset tptp.vertex (tptp.t2tb Visited2) _let_1) (tptp.subset tptp.vertex (tptp.t2tb Q3) _let_1) (forall ((V tptp.vertex1)) (let ((_let_1 (tptp.t2tb2 V))) (=> (tptp.mem tptp.vertex _let_1 (tptp.t2tb Q3)) (=> (tptp.mem tptp.vertex _let_1 (tptp.t2tb Visited2)) false)))) (forall ((V tptp.vertex1)) (let ((_let_1 (tptp.t2tb2 V))) (=> (tptp.mem tptp.vertex _let_1 (tptp.t2tb Visited2)) (tptp.shortest_path1 Src V (tptp.tb2t3 (tptp.get tptp.int tptp.vertex (tptp.t2tb1 D3) _let_1)))))) (forall ((V tptp.vertex1)) (let ((_let_1 (tptp.t2tb2 V))) (=> (tptp.mem tptp.vertex _let_1 (tptp.t2tb Q3)) (tptp.path1 Src V (tptp.tb2t3 (tptp.get tptp.int tptp.vertex (tptp.t2tb1 D3) _let_1)))))) (forall ((X tptp.vertex1)) (=> (tptp.mem tptp.vertex (tptp.t2tb2 X) (tptp.t2tb Visited2)) (forall ((Y tptp.vertex1)) (let ((_let_1 (tptp.t2tb1 D3))) (let ((_let_2 (tptp.t2tb2 Y))) (let ((_let_3 (= X U))) (=> (tptp.mem tptp.vertex _let_2 (tptp.t2tb (tptp.g_succ1 X))) (=> (or (not _let_3) (and _let_3 (not (tptp.mem tptp.vertex _let_2 (tptp.t2tb Su))))) (and (or (tptp.mem tptp.vertex _let_2 (tptp.t2tb Visited2)) (tptp.mem tptp.vertex _let_2 (tptp.t2tb Q3))) (<= (tptp.tb2t3 (tptp.get tptp.int tptp.vertex _let_1 _let_2)) (+ (tptp.tb2t3 (tptp.get tptp.int tptp.vertex _let_1 (tptp.t2tb2 X))) (tptp.weight1 X Y))))))))))))) (forall ((Result tptp.bool1)) (let ((_let_1 (= Result tptp.true1))) (=> (= _let_1 (not (forall ((X tptp.vertex1)) (not (tptp.mem tptp.vertex (tptp.t2tb2 X) (tptp.t2tb Su)))))) (=> _let_1 (=> (not (forall ((X tptp.vertex1)) (not (tptp.mem tptp.vertex (tptp.t2tb2 X) (tptp.t2tb Su))))) (forall ((Su1 tptp.set_vertex) (V tptp.vertex1)) (let ((_let_1 (tptp.t2tb Su))) (let ((_let_2 (tptp.t2tb2 V))) (=> (and (tptp.mem tptp.vertex _let_2 _let_1) (= Su1 (tptp.tb2t (tptp.remove tptp.vertex _let_2 _let_1)))) (forall ((Q4 tptp.set_vertex) (D4 tptp.map_vertex_int)) (let ((_let_1 (tptp.weight1 U V))) (let ((_let_2 (tptp.t2tb2 U))) (let ((_let_3 (tptp.t2tb1 D4))) (let ((_let_4 (+ (tptp.tb2t3 (tptp.get tptp.int tptp.vertex _let_3 _let_2)) _let_1))) (let ((_let_5 (tptp.t2tb2 V))) (let ((_let_6 (tptp.tb2t3 (tptp.get tptp.int tptp.vertex _let_3 _let_5)))) (let ((_let_7 (tptp.t2tb1 D3))) (let ((_let_8 (+ (tptp.tb2t3 (tptp.get tptp.int tptp.vertex _let_7 _let_2)) _let_1))) (let ((_let_9 (= D4 (tptp.tb2t1 (tptp.set1 tptp.int tptp.vertex _let_7 _let_5 (tptp.t2tb3 _let_8)))))) (let ((_let_10 (tptp.t2tb Q3))) (let ((_let_11 (tptp.mem tptp.vertex _let_5 (tptp.t2tb Visited2)))) (let ((_let_12 (= Q4 Q3))) (let ((_let_13 (tptp.mem tptp.vertex _let_5 (tptp.t2tb Q4)))) (let ((_let_14 (= D4 D3))) (=> (or (and _let_11 _let_12 _let_14) (and _let_13 (<= _let_6 _let_4) _let_12 _let_14) (and _let_13 (< _let_8 (tptp.tb2t3 (tptp.get tptp.int tptp.vertex _let_7 _let_5))) _let_12 _let_9) (and (not _let_11) (not (tptp.mem tptp.vertex _let_5 _let_10)) (= Q4 (tptp.tb2t (tptp.add tptp.vertex _let_5 _let_10))) _let_9)) (=> (or (< _let_6 _let_4) (= _let_6 _let_4)) (forall ((X tptp.vertex1)) (=> (tptp.mem tptp.vertex (tptp.t2tb2 X) (tptp.t2tb Visited2)) (forall ((Y tptp.vertex1)) (let ((_let_1 (tptp.t2tb2 Y))) (let ((_let_2 (= X U))) (=> (tptp.mem tptp.vertex _let_1 (tptp.t2tb (tptp.g_succ1 X))) (=> (or (not _let_2) (and _let_2 (not (tptp.mem tptp.vertex _let_1 (tptp.t2tb Su1))))) (or (tptp.mem tptp.vertex _let_1 (tptp.t2tb Visited2)) (tptp.mem tptp.vertex _let_1 (tptp.t2tb Q4))))))))))))))))))))))))))))))))))))))))))))))))))))))))))))))
(check-sat)
